Comps = {frontend0, frontend1, backend0, backend1, database0, database1};
mustComps = {frontend0, frontend1};
Flavs = {tiny, medium, large};
Nodes = {n1, n2, n3, n4};
CRes = {CPU, RAM, storage, bwIn, bwOut};
NRes = {ssl, fwall, encr, avail, latency};
Flav = [{medium, large}, {medium, large}, {tiny, medium, large}, {tiny, medium, large}, {large}, {large}];
Uses = array2d(CompFlavs, CompFlavs, [
	0,0,0,0,1,0,0,0,0,0,0,0,
	0,0,0,0,1,0,0,0,0,0,0,0,
	0,0,0,0,1,0,0,0,0,0,0,0,
	0,0,0,0,1,0,0,0,0,0,0,0,
	0,0,0,0,0,0,0,0,0,0,0,0,
	0,0,0,0,0,0,0,0,0,1,0,0,
	0,0,0,0,0,0,0,0,0,1,0,0,
	0,0,0,0,0,0,0,0,0,0,0,0,
	0,0,0,0,0,0,0,0,0,1,0,0,
	0,0,0,0,0,0,0,0,0,1,0,0,
	0,0,0,0,0,0,0,0,0,0,0,0,
	0,0,0,0,0,0,0,0,0,0,0,0,
]);
mayUse = array2d(Comps, CompFlavs, [
	0,0,0,0,0,0,0,0,0,0,0,0,
	0,0,0,0,0,0,0,0,0,0,0,0,
	1,1,1,1,0,0,0,0,0,0,0,0,
	0,0,0,0,0,1,1,0,1,1,0,0,
	0,0,0,0,0,0,0,0,0,0,0,0,
	0,0,0,0,0,0,0,0,0,0,0,0,
]);
MIN_RBOUNDS = 0;
MAX_RBOUNDS = 1000000;

worstBounds = [0, 0, 0, 0, 0, 0, 0, 0, 0, MAX_RBOUNDS];
bestBounds = [MAX_RBOUNDS - i | i in worstBounds];

comReq = array2d(CompFlavs, Res, [
  8, 304, 438, 526, 514, 1, 0, 0, 96, MAX_RBOUNDS,
  2, 309, 382, 336, 581, 1, 0, 1, 95, MAX_RBOUNDS,
  2, 271, 336, 629, 390, 0, 1, 0, 97, MAX_RBOUNDS,
  2, 450, 429, 225, 917, 0, 1, 0, 97, MAX_RBOUNDS,
  2, 229, 312, 292, 750, 0, 1, 0, 96, MAX_RBOUNDS,
  8, 283, 480, 783, 898, 1, 0, 0, 95, MAX_RBOUNDS,
  2, 362, 477, 860, 988, 0, 1, 1, 96, MAX_RBOUNDS,
  4, 416, 246, 201, 538, 1, 1, 1, 96, MAX_RBOUNDS,
  2, 463, 490, 876, 934, 1, 1, 1, 97, MAX_RBOUNDS,
  2, 403, 429, 952, 617, 1, 0, 1, 97, MAX_RBOUNDS,
  8, 420, 495, 612, 545, 1, 0, 1, 95, MAX_RBOUNDS,
  2, 366, 206, 763, 877, 1, 0, 1, 96, MAX_RBOUNDS,
]);

nodeCap = array2d(Nodes0, Res, [bestBounds[r] | r in Res] ++ [
  32, 35713, 579756, 21047, 16750, 1, 1, 1, 98, 0,
  16, 61094, 697988, 18007, 24278, 1, 1, 1, 98, 0,
  16, 22132, 510839, 10386, 10016, 1, 1, 1, 98, 0,
  16, 118493, 961421, 24699, 18739, 1, 0, 1, 99, 0,
]);

cost = array2d(Nodes0, Res, [
  0, 0, 0, 0, 0, 0, 0, 0, 0, 0, % no node
  15, 7, 16, 0, 0, 0, 0, 0, 0, 0,
  12, 5, 24, 0, 0, 0, 0, 0, 0, 0,
  17, 10, 15, 0, 0, 0, 0, 0, 0, 0,
  20, 5, 21, 0, 0, 0, 0, 0, 0, 0,
]);

carb = array2d(Nodes0, Res, [
  0, 0, 0, 0, 0, 0, 0, 0, 0, 0, % no node
  38, 24, 18, 0, 0, 0, 0, 0, 0, 0,
  15, 5, 27, 0, 0, 0, 0, 0, 0, 0,
  32, 3, 17, 0, 0, 0, 0, 0, 0, 0,
  45, 38, 38, 0, 0, 0, 0, 0, 0, 0,
]);

costBudget = 40387;
carbBudget = 42356;

depReq = array4d(Comps, Flavs, Comps, Res, [
  if c1 = frontend0 /\ c2 = backend0 /\ r = N(avail) then
    96
  elseif c1 = frontend0 /\ c2 = backend1 /\ r = N(avail) then
    97
  elseif c1 = frontend1 /\ c2 = backend1 /\ r = N(avail) then
    96
  elseif c1 = frontend1 /\ c2 = backend0 /\ r = N(avail) then
    97
  else
    worstBounds[r]
  endif | c1 in Comps, i in Flavs, c2 in Comps, r in Res]);

linkCap = array3d(Nodes0, Nodes0, Res, [
  if ni = 0 \/ nj = 0 then
    bestBounds[r]
  elseif ni = nj /\ r = N(avail) then
    nodeCap[ni,r]
  elseif {ni, nj} = {n1, n2} /\ r = N(avail) then
    98
  elseif {ni, nj} = {n2, n4} /\ r = N(avail) then
    99
  elseif {ni, nj} = {n1, n4} /\ r = N(avail) then
    99
  elseif {ni, nj} = {n2, n3} /\ r = N(avail) then
    98
  elseif {ni, nj} = {n1, n3} /\ r = N(avail) then
    99
  elseif {ni, nj} = {n3, n4} /\ r = N(avail) then
    99
  else
    worstBounds[r]
  endif | ni in Nodes0, nj in Nodes0, r in Res]);

imp = array2d(Comps, Flavs, [
  1, 7, 9,
  1, 5, 7,
  2, 3, 4,
  1, 3, 6,
  3, 5, 7,
  4, 7, 8,
]);

